solution status: optimal solution found
objective value:                     176431.123765295
d11(0,0)                                            1 	(obj:0)
d11(1,1)                                            1 	(obj:0)
d11(1,2)                                            1 	(obj:0)
d11(2,3)                                            1 	(obj:0)
d11(2,4)                                            1 	(obj:0)
d11(2,5)                                            1 	(obj:0)
d11(3,7)                                            1 	(obj:0)
d11(3,9)                                            1 	(obj:0)
d11(3,13)                                           1 	(obj:0)
d12(3,8)                                            1 	(obj:0)
d12(3,10)                                           1 	(obj:0)
d12(3,12)                                           1 	(obj:0)
d12(3,14)                                           1 	(obj:0)
d21(2,3)                                            1 	(obj:0)
d21(3,7)                                            1 	(obj:0)
d21(3,8)                                            1 	(obj:0)
d21(3,9)                                            1 	(obj:0)
WB(2)                                3315.65537776224 	(obj:0)
y2(3,8)                              1385.48851144896 	(obj:0)
y2(3,10)                             1385.48851144898 	(obj:0)
y2(3,12)                             1385.48851144899 	(obj:0)
y2(3,14)                             1385.48851144899 	(obj:0)
STE(1,1)                                         5670 	(obj:0)
STE(0,0)                                        15750 	(obj:0)
STE(1,2)                             7328.24989888882 	(obj:0)
STE(2,3)                             2751.75010111118 	(obj:0)
STE(2,4)                                         4410 	(obj:0)
STE(2,5)                                         4410 	(obj:0)
STE(2,6)                             6068.24989888882 	(obj:0)
STE(3,7)                             1491.75010111118 	(obj:0)
STE(3,8)                             2807.96418698769 	(obj:0)
STE(3,9)                             3149.99999999994 	(obj:0)
STE(3,10)                            4466.21408587653 	(obj:0)
STE(3,11)                                        3150 	(obj:0)
STE(3,12)                            4466.21408587654 	(obj:0)
STE(3,13)                            4808.24989888882 	(obj:0)
STE(3,14)                            6124.46398476536 	(obj:0)
AVE(2)                               3315.65537776224 	(obj:0)
WB(3)                                3315.65799770399 	(obj:0)
y1(1,1)                                          7938 	(obj:0)
y1(1,2)                              6445.57509100006 	(obj:0)
y1(2,3)                              1492.42490899994 	(obj:0)
y1(2,5)                              1492.42490899994 	(obj:0)
AVE(3)                               3315.65799770399 	(obj:0)
WB(1)                                3248.33172520918 	(obj:0)
BG(1)                                10773.4099387756 	(obj:10)
BG(2)                                4196.29249897957 	(obj:10)
BG(3)                                2673.40993877551 	(obj:10)
AVE(1)                               3248.33172520918 	(obj:0)
